p cnf 484 1
484 0
w 1 0.492928
w 2 1 0
w 2 -1 1
w 3 2 1
w 3 -2 0
w 4 3 0
w 4 -3 1
w 5 4 1
w 5 -4 0
w 6 5 0
w 6 -5 1
w 7 6 1
w 7 -6 0
w 8 7 1
w 8 -7 0
w 9 8 0
w 9 -8 1
w 10 9 0
w 10 -9 1
w 11 10 0
w 11 -10 1
w 12 11 1
w 12 -11 0
w 13 12 1
w 13 -12 0
w 14 13 1
w 14 -13 0
w 15 14 1
w 15 -14 0
w 16 15 0
w 16 -15 1
w 17 16 1
w 17 -16 0
w 18 17 0
w 18 -17 1
w 19 18 0
w 19 -18 1
w 20 19 0
w 20 -19 1
w 21 20 1
w 21 -20 0
w 22 21 1
w 22 -21 0
w 23 1 1
w 23 -1 0
w 24 23 2 0
w 24 23 -2 1
w 24 -23 2 0
w 24 -23 -2 0
w 25 24 3 0
w 25 24 -3 1
w 25 -24 3 0
w 25 -24 -3 0
w 26 25 4 0.768925
w 26 25 -4 0.479862
w 26 -25 4 0.518291
w 26 -25 -4 0.900589
w 27 26 5 1
w 27 26 -5 0
w 27 -26 5 1
w 27 -26 -5 1
w 28 27 6 0
w 28 27 -6 1
w 28 -27 6 0
w 28 -27 -6 0
w 29 28 7 0
w 29 28 -7 0
w 29 -28 7 0
w 29 -28 -7 1
w 30 29 8 0
w 30 29 -8 0
w 30 -29 8 0
w 30 -29 -8 1
w 31 30 9 1
w 31 30 -9 1
w 31 -30 9 1
w 31 -30 -9 0
w 32 31 10 1
w 32 31 -10 0
w 32 -31 10 1
w 32 -31 -10 1
w 33 32 11 1
w 33 32 -11 1
w 33 -32 11 1
w 33 -32 -11 0
w 34 33 12 0.0625559
w 34 33 -12 0.791589
w 34 -33 12 0.449809
w 34 -33 -12 0.77852
w 35 34 13 1
w 35 34 -13 1
w 35 -34 13 0
w 35 -34 -13 1
w 36 35 14 0
w 36 35 -14 0
w 36 -35 14 1
w 36 -35 -14 1
w 37 36 15 1
w 37 36 -15 0
w 37 -36 15 0
w 37 -36 -15 1
w 38 37 16 1
w 38 37 -16 0
w 38 -37 16 1
w 38 -37 -16 1
w 39 38 17 0
w 39 38 -17 0
w 39 -38 17 0
w 39 -38 -17 1
w 40 39 18 0
w 40 39 -18 0
w 40 -39 18 1
w 40 -39 -18 1
w 41 40 19 0
w 41 40 -19 1
w 41 -40 19 1
w 41 -40 -19 0
w 42 41 20 1
w 42 41 -20 0
w 42 -41 20 0
w 42 -41 -20 0
w 43 42 21 0.611864
w 43 42 -21 0.340168
w 43 -42 21 0.643698
w 43 -42 -21 0.648749
w 44 43 22 1
w 44 43 -22 0
w 44 -43 22 0
w 44 -43 -22 0
w 45 23 0.125632
w 45 -23 0.65946
w 46 45 24 1
w 46 45 -24 1
w 46 -45 24 0
w 46 -45 -24 1
w 47 46 25 0.572224
w 47 46 -25 0.589681
w 47 -46 25 0.552705
w 47 -46 -25 0.87089
w 48 47 26 1
w 48 47 -26 0
w 48 -47 26 0
w 48 -47 -26 0
w 49 48 27 0.334033
w 49 48 -27 0.656915
w 49 -48 27 0.62747
w 49 -48 -27 0.945897
w 50 49 28 0.271168
w 50 49 -28 0.594647
w 50 -49 28 0.500379
w 50 -49 -28 0.415055
w 51 50 29 0
w 51 50 -29 1
w 51 -50 29 0
w 51 -50 -29 1
w 52 51 30 0.157349
w 52 51 -30 0.861841
w 52 -51 30 0.823709
w 52 -51 -30 0.880208
w 53 52 31 1
w 53 52 -31 0
w 53 -52 31 1
w 53 -52 -31 1
w 54 53 32 0
w 54 53 -32 1
w 54 -53 32 1
w 54 -53 -32 0
w 55 54 33 0.52882
w 55 54 -33 0.60211
w 55 -54 33 0.462597
w 55 -54 -33 0.474717
w 56 55 34 0
w 56 55 -34 1
w 56 -55 34 0
w 56 -55 -34 0
w 57 56 35 0
w 57 56 -35 1
w 57 -56 35 1
w 57 -56 -35 1
w 58 57 36 1
w 58 57 -36 1
w 58 -57 36 1
w 58 -57 -36 0
w 59 58 37 1
w 59 58 -37 1
w 59 -58 37 1
w 59 -58 -37 0
w 60 59 38 0.745467
w 60 59 -38 0.750321
w 60 -59 38 0.796513
w 60 -59 -38 0.940254
w 61 60 39 1
w 61 60 -39 0
w 61 -60 39 0
w 61 -60 -39 0
w 62 61 40 0.828003
w 62 61 -40 0.0131539
w 62 -61 40 0.99639
w 62 -61 -40 0.976823
w 63 62 41 0
w 63 62 -41 0
w 63 -62 41 0
w 63 -62 -41 1
w 64 63 42 1
w 64 63 -42 0
w 64 -63 42 1
w 64 -63 -42 0
w 65 64 43 0
w 65 64 -43 1
w 65 -64 43 0
w 65 -64 -43 0
w 66 65 44 0
w 66 65 -44 1
w 66 -65 44 1
w 66 -65 -44 0
w 67 45 0
w 67 -45 1
w 68 67 46 1
w 68 67 -46 0
w 68 -67 46 1
w 68 -67 -46 1
w 69 68 47 0.368575
w 69 68 -47 0.60938
w 69 -68 47 0.845546
w 69 -68 -47 0.521186
w 70 69 48 0.216892
w 70 69 -48 0.6473
w 70 -69 48 0.388257
w 70 -69 -48 0.887923
w 71 70 49 0.248653
w 71 70 -49 0.682346
w 71 -70 49 0.172286
w 71 -70 -49 0.467276
w 72 71 50 1
w 72 71 -50 1
w 72 -71 50 0
w 72 -71 -50 1
w 73 72 51 1
w 73 72 -51 1
w 73 -72 51 1
w 73 -72 -51 0
w 74 73 52 0
w 74 73 -52 1
w 74 -73 52 1
w 74 -73 -52 1
w 75 74 53 0.5929
w 75 74 -53 0.804602
w 75 -74 53 0.445918
w 75 -74 -53 0.438446
w 76 75 54 1
w 76 75 -54 0
w 76 -75 54 0
w 76 -75 -54 1
w 77 76 55 0
w 77 76 -55 1
w 77 -76 55 0
w 77 -76 -55 0
w 78 77 56 0
w 78 77 -56 0
w 78 -77 56 0
w 78 -77 -56 1
w 79 78 57 0.0733347
w 79 78 -57 0.112543
w 79 -78 57 0.465387
w 79 -78 -57 0.580712
w 80 79 58 0.545993
w 80 79 -58 0.80426
w 80 -79 58 0.520177
w 80 -79 -58 0.98202
w 81 80 59 0
w 81 80 -59 0
w 81 -80 59 1
w 81 -80 -59 1
w 82 81 60 1
w 82 81 -60 0
w 82 -81 60 0
w 82 -81 -60 0
w 83 82 61 0.96285
w 83 82 -61 0.836973
w 83 -82 61 0.975729
w 83 -82 -61 0.0124875
w 84 83 62 1
w 84 83 -62 1
w 84 -83 62 1
w 84 -83 -62 0
w 85 84 63 1
w 85 84 -63 1
w 85 -84 63 0
w 85 -84 -63 1
w 86 85 64 1
w 86 85 -64 0
w 86 -85 64 0
w 86 -85 -64 1
w 87 86 65 0
w 87 86 -65 1
w 87 -86 65 0
w 87 -86 -65 1
w 88 87 66 0.0931656
w 88 87 -66 0.641678
w 88 -87 66 0.027195
w 88 -87 -66 0.0515319
w 89 67 0
w 89 -67 1
w 90 89 68 0.367529
w 90 89 -68 0.00253236
w 90 -89 68 0.0713614
w 90 -89 -68 0.961959
w 91 90 69 0.324213
w 91 90 -69 0.540891
w 91 -90 69 0.309954
w 91 -90 -69 0.373478
w 92 91 70 0
w 92 91 -70 0
w 92 -91 70 1
w 92 -91 -70 1
w 93 92 71 0.463377
w 93 92 -71 0.784249
w 93 -92 71 0.991438
w 93 -92 -71 0.141414
w 94 93 72 1
w 94 93 -72 1
w 94 -93 72 0
w 94 -93 -72 0
w 95 94 73 0.744038
w 95 94 -73 0.789616
w 95 -94 73 0.0508646
w 95 -94 -73 0.135838
w 96 95 74 0.93937
w 96 95 -74 0.503367
w 96 -95 74 0.782193
w 96 -95 -74 0.0107311
w 97 96 75 0
w 97 96 -75 0
w 97 -96 75 1
w 97 -96 -75 0
w 98 97 76 1
w 98 97 -76 0
w 98 -97 76 1
w 98 -97 -76 0
w 99 98 77 0.545326
w 99 98 -77 0.0888917
w 99 -98 77 0.62288
w 99 -98 -77 0.536764
w 100 99 78 1
w 100 99 -78 1
w 100 -99 78 1
w 100 -99 -78 0
w 101 100 79 1
w 101 100 -79 0
w 101 -100 79 1
w 101 -100 -79 0
w 102 101 80 0
w 102 101 -80 1
w 102 -101 80 1
w 102 -101 -80 0
w 103 102 81 1
w 103 102 -81 0
w 103 -102 81 0
w 103 -102 -81 0
w 104 103 82 1
w 104 103 -82 0
w 104 -103 82 1
w 104 -103 -82 1
w 105 104 83 0.322015
w 105 104 -83 0.161353
w 105 -104 83 0.568747
w 105 -104 -83 0.858779
w 106 105 84 1
w 106 105 -84 0
w 106 -105 84 1
w 106 -105 -84 1
w 107 106 85 1
w 107 106 -85 0
w 107 -106 85 1
w 107 -106 -85 1
w 108 107 86 0.976649
w 108 107 -86 0.43746
w 108 -107 86 0.406268
w 108 -107 -86 0.11342
w 109 108 87 0
w 109 108 -87 0
w 109 -108 87 1
w 109 -108 -87 1
w 110 109 88 0.373329
w 110 109 -88 0.0181714
w 110 -109 88 0.541964
w 110 -109 -88 0.44579
w 111 89 0.86398
w 111 -89 0.607143
w 112 111 90 0
w 112 111 -90 0
w 112 -111 90 0
w 112 -111 -90 1
w 113 112 91 1
w 113 112 -91 1
w 113 -112 91 1
w 113 -112 -91 0
w 114 113 92 0
w 114 113 -92 0
w 114 -113 92 1
w 114 -113 -92 0
w 115 114 93 0.131549
w 115 114 -93 0.810384
w 115 -114 93 0.490363
w 115 -114 -93 0.716686
w 116 115 94 0
w 116 115 -94 0
w 116 -115 94 0
w 116 -115 -94 1
w 117 116 95 1
w 117 116 -95 1
w 117 -116 95 0
w 117 -116 -95 1
w 118 117 96 0.610663
w 118 117 -96 0.161831
w 118 -117 96 0.308247
w 118 -117 -96 0.549689
w 119 118 97 0
w 119 118 -97 1
w 119 -118 97 1
w 119 -118 -97 1
w 120 119 98 1
w 120 119 -98 0
w 120 -119 98 1
w 120 -119 -98 1
w 121 120 99 1
w 121 120 -99 1
w 121 -120 99 0
w 121 -120 -99 1
w 122 121 100 0
w 122 121 -100 0
w 122 -121 100 1
w 122 -121 -100 1
w 123 122 101 1
w 123 122 -101 0
w 123 -122 101 0
w 123 -122 -101 0
w 124 123 102 0.348511
w 124 123 -102 0.58284
w 124 -123 102 0.341621
w 124 -123 -102 0.037276
w 125 124 103 0
w 125 124 -103 1
w 125 -124 103 1
w 125 -124 -103 1
w 126 125 104 0.198769
w 126 125 -104 0.313909
w 126 -125 104 0.777275
w 126 -125 -104 0.00928566
w 127 126 105 0.84807
w 127 126 -105 0.630186
w 127 -126 105 0.131591
w 127 -126 -105 0.63555
w 128 127 106 0.686912
w 128 127 -106 0.904991
w 128 -127 106 0.455618
w 128 -127 -106 0.661704
w 129 128 107 0
w 129 128 -107 1
w 129 -128 107 1
w 129 -128 -107 1
w 130 129 108 1
w 130 129 -108 1
w 130 -129 108 1
w 130 -129 -108 0
w 131 130 109 1
w 131 130 -109 0
w 131 -130 109 0
w 131 -130 -109 0
w 132 131 110 1
w 132 131 -110 0
w 132 -131 110 0
w 132 -131 -110 1
w 133 111 0.615072
w 133 -111 0.0675711
w 134 133 112 0.301984
w 134 133 -112 0.972562
w 134 -133 112 0.213968
w 134 -133 -112 0.963688
w 135 134 113 1
w 135 134 -113 0
w 135 -134 113 0
w 135 -134 -113 1
w 136 135 114 0
w 136 135 -114 0
w 136 -135 114 1
w 136 -135 -114 1
w 137 136 115 1
w 137 136 -115 0
w 137 -136 115 0
w 137 -136 -115 1
w 138 137 116 1
w 138 137 -116 0
w 138 -137 116 0
w 138 -137 -116 0
w 139 138 117 0.0963642
w 139 138 -117 0.216674
w 139 -138 117 0.542247
w 139 -138 -117 0.711437
w 140 139 118 0
w 140 139 -118 0
w 140 -139 118 1
w 140 -139 -118 0
w 141 140 119 0.427725
w 141 140 -119 0.207802
w 141 -140 119 0.960802
w 141 -140 -119 0.978267
w 142 141 120 0
w 142 141 -120 0
w 142 -141 120 1
w 142 -141 -120 0
w 143 142 121 0.366007
w 143 142 -121 0.962981
w 143 -142 121 0.850604
w 143 -142 -121 0.760032
w 144 143 122 1
w 144 143 -122 0
w 144 -143 122 0
w 144 -143 -122 1
w 145 144 123 0
w 145 144 -123 0
w 145 -144 123 1
w 145 -144 -123 1
w 146 145 124 0
w 146 145 -124 1
w 146 -145 124 1
w 146 -145 -124 1
w 147 146 125 1
w 147 146 -125 0
w 147 -146 125 1
w 147 -146 -125 0
w 148 147 126 0.998785
w 148 147 -126 0.568682
w 148 -147 126 0.60947
w 148 -147 -126 0.939414
w 149 148 127 0.545109
w 149 148 -127 0.305421
w 149 -148 127 0.926486
w 149 -148 -127 0.395713
w 150 149 128 0
w 150 149 -128 0
w 150 -149 128 1
w 150 -149 -128 0
w 151 150 129 0.771574
w 151 150 -129 0.351303
w 151 -150 129 0.590561
w 151 -150 -129 0.733635
w 152 151 130 0.968817
w 152 151 -130 0.979941
w 152 -151 130 0.469567
w 152 -151 -130 0.360494
w 153 152 131 1
w 153 152 -131 1
w 153 -152 131 1
w 153 -152 -131 0
w 154 153 132 1
w 154 153 -132 0
w 154 -153 132 0
w 154 -153 -132 1
w 155 133 0
w 155 -133 1
w 156 155 134 0
w 156 155 -134 0
w 156 -155 134 0
w 156 -155 -134 1
w 157 156 135 0.226576
w 157 156 -135 0.460621
w 157 -156 135 0.392142
w 157 -156 -135 0.150318
w 158 157 136 1
w 158 157 -136 1
w 158 -157 136 0
w 158 -157 -136 0
w 159 158 137 0
w 159 158 -137 0
w 159 -158 137 0
w 159 -158 -137 1
w 160 159 138 1
w 160 159 -138 0
w 160 -159 138 0
w 160 -159 -138 1
w 161 160 139 0
w 161 160 -139 1
w 161 -160 139 1
w 161 -160 -139 0
w 162 161 140 0
w 162 161 -140 0
w 162 -161 140 1
w 162 -161 -140 1
w 163 162 141 0.501919
w 163 162 -141 0.67563
w 163 -162 141 0.243822
w 163 -162 -141 0.894061
w 164 163 142 0.476017
w 164 163 -142 0.637506
w 164 -163 142 0.566826
w 164 -163 -142 0.441847
w 165 164 143 0
w 165 164 -143 1
w 165 -164 143 1
w 165 -164 -143 0
w 166 165 144 0.780949
w 166 165 -144 0.146184
w 166 -165 144 0.659162
w 166 -165 -144 0.573024
w 167 166 145 1
w 167 166 -145 1
w 167 -166 145 1
w 167 -166 -145 0
w 168 167 146 1
w 168 167 -146 1
w 168 -167 146 0
w 168 -167 -146 0
w 169 168 147 0.600998
w 169 168 -147 0.663787
w 169 -168 147 0.62351
w 169 -168 -147 0.844821
w 170 169 148 1
w 170 169 -148 0
w 170 -169 148 1
w 170 -169 -148 1
w 171 170 149 0.336443
w 171 170 -149 0.292806
w 171 -170 149 0.150302
w 171 -170 -149 0.450679
w 172 171 150 0
w 172 171 -150 1
w 172 -171 150 0
w 172 -171 -150 1
w 173 172 151 0.790229
w 173 172 -151 0.450786
w 173 -172 151 0.2939
w 173 -172 -151 0.28065
w 174 173 152 1
w 174 173 -152 1
w 174 -173 152 0
w 174 -173 -152 1
w 175 174 153 0.181726
w 175 174 -153 0.673678
w 175 -174 153 0.444069
w 175 -174 -153 0.0265472
w 176 175 154 0
w 176 175 -154 0
w 176 -175 154 1
w 176 -175 -154 1
w 177 155 0
w 177 -155 1
w 178 177 156 0
w 178 177 -156 1
w 178 -177 156 1
w 178 -177 -156 0
w 179 178 157 0
w 179 178 -157 1
w 179 -178 157 1
w 179 -178 -157 1
w 180 179 158 0
w 180 179 -158 1
w 180 -179 158 1
w 180 -179 -158 1
w 181 180 159 1
w 181 180 -159 0
w 181 -180 159 1
w 181 -180 -159 0
w 182 181 160 1
w 182 181 -160 0
w 182 -181 160 1
w 182 -181 -160 1
w 183 182 161 1
w 183 182 -161 0
w 183 -182 161 0
w 183 -182 -161 0
w 184 183 162 0
w 184 183 -162 0
w 184 -183 162 1
w 184 -183 -162 0
w 185 184 163 0
w 185 184 -163 1
w 185 -184 163 1
w 185 -184 -163 1
w 186 185 164 0
w 186 185 -164 0
w 186 -185 164 1
w 186 -185 -164 1
w 187 186 165 0.425896
w 187 186 -165 0.301094
w 187 -186 165 0.51105
w 187 -186 -165 0.796794
w 188 187 166 1
w 188 187 -166 1
w 188 -187 166 0
w 188 -187 -166 0
w 189 188 167 0
w 189 188 -167 1
w 189 -188 167 1
w 189 -188 -167 1
w 190 189 168 0.277794
w 190 189 -168 0.609986
w 190 -189 168 0.42254
w 190 -189 -168 0.318854
w 191 190 169 0.713434
w 191 190 -169 0.212939
w 191 -190 169 0.483611
w 191 -190 -169 0.422395
w 192 191 170 0
w 192 191 -170 1
w 192 -191 170 0
w 192 -191 -170 1
w 193 192 171 0.712287
w 193 192 -171 0.304094
w 193 -192 171 0.295542
w 193 -192 -171 0.509082
w 194 193 172 1
w 194 193 -172 0
w 194 -193 172 0
w 194 -193 -172 1
w 195 194 173 0
w 195 194 -173 0
w 195 -194 173 1
w 195 -194 -173 1
w 196 195 174 1
w 196 195 -174 1
w 196 -195 174 0
w 196 -195 -174 1
w 197 196 175 1
w 197 196 -175 1
w 197 -196 175 0
w 197 -196 -175 1
w 198 197 176 1
w 198 197 -176 0
w 198 -197 176 1
w 198 -197 -176 0
w 199 177 0
w 199 -177 1
w 200 199 178 0.607623
w 200 199 -178 0.243847
w 200 -199 178 0.662801
w 200 -199 -178 0.644524
w 201 200 179 1
w 201 200 -179 1
w 201 -200 179 0
w 201 -200 -179 1
w 202 201 180 1
w 202 201 -180 0
w 202 -201 180 0
w 202 -201 -180 1
w 203 202 181 0
w 203 202 -181 0
w 203 -202 181 0
w 203 -202 -181 1
w 204 203 182 1
w 204 203 -182 0
w 204 -203 182 0
w 204 -203 -182 0
w 205 204 183 0
w 205 204 -183 0
w 205 -204 183 0
w 205 -204 -183 1
w 206 205 184 0
w 206 205 -184 0
w 206 -205 184 1
w 206 -205 -184 0
w 207 206 185 0.704714
w 207 206 -185 0.497391
w 207 -206 185 0.835359
w 207 -206 -185 0.510505
w 208 207 186 0
w 208 207 -186 1
w 208 -207 186 1
w 208 -207 -186 0
w 209 208 187 1
w 209 208 -187 0
w 209 -208 187 0
w 209 -208 -187 0
w 210 209 188 1
w 210 209 -188 0
w 210 -209 188 1
w 210 -209 -188 0
w 211 210 189 0.313688
w 211 210 -189 0.471415
w 211 -210 189 0.986937
w 211 -210 -189 0.012281
w 212 211 190 0
w 212 211 -190 1
w 212 -211 190 1
w 212 -211 -190 0
w 213 212 191 1
w 213 212 -191 0
w 213 -212 191 1
w 213 -212 -191 0
w 214 213 192 1
w 214 213 -192 1
w 214 -213 192 1
w 214 -213 -192 0
w 215 214 193 1
w 215 214 -193 0
w 215 -214 193 0
w 215 -214 -193 1
w 216 215 194 0.116479
w 216 215 -194 0.319833
w 216 -215 194 0.741628
w 216 -215 -194 0.226485
w 217 216 195 1
w 217 216 -195 0
w 217 -216 195 0
w 217 -216 -195 0
w 218 217 196 0
w 218 217 -196 1
w 218 -217 196 1
w 218 -217 -196 0
w 219 218 197 0
w 219 218 -197 0
w 219 -218 197 0
w 219 -218 -197 1
w 220 219 198 1
w 220 219 -198 0
w 220 -219 198 0
w 220 -219 -198 0
w 221 199 0
w 221 -199 1
w 222 221 200 0
w 222 221 -200 1
w 222 -221 200 1
w 222 -221 -200 0
w 223 222 201 1
w 223 222 -201 0
w 223 -222 201 1
w 223 -222 -201 1
w 224 223 202 0.597729
w 224 223 -202 0.81108
w 224 -223 202 0.991595
w 224 -223 -202 0.86322
w 225 224 203 0
w 225 224 -203 0
w 225 -224 203 0
w 225 -224 -203 1
w 226 225 204 0.245266
w 226 225 -204 0.792942
w 226 -225 204 0.730019
w 226 -225 -204 0.99301
w 227 226 205 0
w 227 226 -205 0
w 227 -226 205 1
w 227 -226 -205 0
w 228 227 206 0
w 228 227 -206 1
w 228 -227 206 1
w 228 -227 -206 1
w 229 228 207 1
w 229 228 -207 1
w 229 -228 207 1
w 229 -228 -207 0
w 230 229 208 0
w 230 229 -208 0
w 230 -229 208 1
w 230 -229 -208 1
w 231 230 209 1
w 231 230 -209 0
w 231 -230 209 1
w 231 -230 -209 0
w 232 231 210 0
w 232 231 -210 0
w 232 -231 210 1
w 232 -231 -210 1
w 233 232 211 1
w 233 232 -211 1
w 233 -232 211 0
w 233 -232 -211 0
w 234 233 212 0
w 234 233 -212 0
w 234 -233 212 1
w 234 -233 -212 1
w 235 234 213 0
w 235 234 -213 0
w 235 -234 213 0
w 235 -234 -213 1
w 236 235 214 0.285245
w 236 235 -214 0.252439
w 236 -235 214 0.848089
w 236 -235 -214 0.532656
w 237 236 215 0
w 237 236 -215 0
w 237 -236 215 1
w 237 -236 -215 0
w 238 237 216 0.636061
w 238 237 -216 0.47934
w 238 -237 216 0.266933
w 238 -237 -216 0.0538986
w 239 238 217 0.427433
w 239 238 -217 0.92881
w 239 -238 217 0.279642
w 239 -238 -217 0.715004
w 240 239 218 0.932192
w 240 239 -218 0.37147
w 240 -239 218 0.0616753
w 240 -239 -218 0.380359
w 241 240 219 1
w 241 240 -219 0
w 241 -240 219 1
w 241 -240 -219 1
w 242 241 220 0
w 242 241 -220 0
w 242 -241 220 0
w 242 -241 -220 1
w 243 221 1
w 243 -221 0
w 244 243 222 0
w 244 243 -222 1
w 244 -243 222 0
w 244 -243 -222 1
w 245 244 223 0
w 245 244 -223 0
w 245 -244 223 1
w 245 -244 -223 1
w 246 245 224 0
w 246 245 -224 0
w 246 -245 224 1
w 246 -245 -224 1
w 247 246 225 1
w 247 246 -225 0
w 247 -246 225 0
w 247 -246 -225 0
w 248 247 226 0
w 248 247 -226 1
w 248 -247 226 1
w 248 -247 -226 0
w 249 248 227 1
w 249 248 -227 0
w 249 -248 227 1
w 249 -248 -227 0
w 250 249 228 1
w 250 249 -228 0
w 250 -249 228 1
w 250 -249 -228 1
w 251 250 229 0.662287
w 251 250 -229 0.850979
w 251 -250 229 0.794276
w 251 -250 -229 0.218514
w 252 251 230 0.0688846
w 252 251 -230 0.703551
w 252 -251 230 0.264084
w 252 -251 -230 0.0584976
w 253 252 231 1
w 253 252 -231 0
w 253 -252 231 1
w 253 -252 -231 1
w 254 253 232 0
w 254 253 -232 1
w 254 -253 232 0
w 254 -253 -232 1
w 255 254 233 0
w 255 254 -233 0
w 255 -254 233 0
w 255 -254 -233 1
w 256 255 234 0
w 256 255 -234 1
w 256 -255 234 1
w 256 -255 -234 1
w 257 256 235 1
w 257 256 -235 0
w 257 -256 235 0
w 257 -256 -235 1
w 258 257 236 1
w 258 257 -236 1
w 258 -257 236 1
w 258 -257 -236 0
w 259 258 237 1
w 259 258 -237 1
w 259 -258 237 1
w 259 -258 -237 0
w 260 259 238 1
w 260 259 -238 1
w 260 -259 238 0
w 260 -259 -238 1
w 261 260 239 0
w 261 260 -239 1
w 261 -260 239 1
w 261 -260 -239 0
w 262 261 240 0
w 262 261 -240 1
w 262 -261 240 0
w 262 -261 -240 1
w 263 262 241 0.103056
w 263 262 -241 0.735714
w 263 -262 241 0.153651
w 263 -262 -241 0.317728
w 264 263 242 0.561575
w 264 263 -242 0.45011
w 264 -263 242 0.107411
w 264 -263 -242 0.673049
w 265 243 0.3862
w 265 -243 0.800313
w 266 265 244 0.084569
w 266 265 -244 0.317281
w 266 -265 244 0.926385
w 266 -265 -244 0.935621
w 267 266 245 0
w 267 266 -245 1
w 267 -266 245 0
w 267 -266 -245 0
w 268 267 246 0.767217
w 268 267 -246 0.291503
w 268 -267 246 0.950596
w 268 -267 -246 0.735769
w 269 268 247 1
w 269 268 -247 1
w 269 -268 247 0
w 269 -268 -247 0
w 270 269 248 0.846516
w 270 269 -248 0.110745
w 270 -269 248 0.737186
w 270 -269 -248 0.408091
w 271 270 249 1
w 271 270 -249 1
w 271 -270 249 0
w 271 -270 -249 0
w 272 271 250 0.193126
w 272 271 -250 0.315366
w 272 -271 250 0.198734
w 272 -271 -250 0.119511
w 273 272 251 1
w 273 272 -251 0
w 273 -272 251 1
w 273 -272 -251 1
w 274 273 252 0.164942
w 274 273 -252 0.857625
w 274 -273 252 0.810536
w 274 -273 -252 0.900711
w 275 274 253 0
w 275 274 -253 1
w 275 -274 253 1
w 275 -274 -253 0
w 276 275 254 0.125628
w 276 275 -254 0.404258
w 276 -275 254 0.602316
w 276 -275 -254 0.533719
w 277 276 255 0.446913
w 277 276 -255 0.614859
w 277 -276 255 0.372546
w 277 -276 -255 0.67771
w 278 277 256 0
w 278 277 -256 0
w 278 -277 256 1
w 278 -277 -256 0
w 279 278 257 0
w 279 278 -257 1
w 279 -278 257 1
w 279 -278 -257 1
w 280 279 258 1
w 280 279 -258 0
w 280 -279 258 1
w 280 -279 -258 0
w 281 280 259 0
w 281 280 -259 1
w 281 -280 259 0
w 281 -280 -259 0
w 282 281 260 0
w 282 281 -260 0
w 282 -281 260 1
w 282 -281 -260 0
w 283 282 261 1
w 283 282 -261 0
w 283 -282 261 0
w 283 -282 -261 1
w 284 283 262 0
w 284 283 -262 1
w 284 -283 262 1
w 284 -283 -262 0
w 285 284 263 1
w 285 284 -263 0
w 285 -284 263 1
w 285 -284 -263 1
w 286 285 264 0
w 286 285 -264 1
w 286 -285 264 0
w 286 -285 -264 0
w 287 265 0
w 287 -265 1
w 288 287 266 0.941304
w 288 287 -266 0.0741789
w 288 -287 266 0.620307
w 288 -287 -266 0.535808
w 289 288 267 0
w 289 288 -267 0
w 289 -288 267 1
w 289 -288 -267 1
w 290 289 268 1
w 290 289 -268 1
w 290 -289 268 0
w 290 -289 -268 0
w 291 290 269 1
w 291 290 -269 1
w 291 -290 269 0
w 291 -290 -269 1
w 292 291 270 0.320681
w 292 291 -270 0.308656
w 292 -291 270 0.683139
w 292 -291 -270 0.582744
w 293 292 271 1
w 293 292 -271 1
w 293 -292 271 0
w 293 -292 -271 0
w 294 293 272 1
w 294 293 -272 1
w 294 -293 272 0
w 294 -293 -272 1
w 295 294 273 0.646476
w 295 294 -273 0.977204
w 295 -294 273 0.602425
w 295 -294 -273 0.143356
w 296 295 274 0
w 296 295 -274 1
w 296 -295 274 1
w 296 -295 -274 0
w 297 296 275 0
w 297 296 -275 1
w 297 -296 275 0
w 297 -296 -275 0
w 298 297 276 0
w 298 297 -276 0
w 298 -297 276 1
w 298 -297 -276 1
w 299 298 277 1
w 299 298 -277 0
w 299 -298 277 0
w 299 -298 -277 1
w 300 299 278 1
w 300 299 -278 0
w 300 -299 278 0
w 300 -299 -278 0
w 301 300 279 0.427486
w 301 300 -279 0.340877
w 301 -300 279 0.438314
w 301 -300 -279 0.570841
w 302 301 280 0.417099
w 302 301 -280 0.804147
w 302 -301 280 0.724607
w 302 -301 -280 0.0936872
w 303 302 281 0
w 303 302 -281 0
w 303 -302 281 0
w 303 -302 -281 1
w 304 303 282 0
w 304 303 -282 1
w 304 -303 282 0
w 304 -303 -282 1
w 305 304 283 0.264871
w 305 304 -283 0.266776
w 305 -304 283 0.485157
w 305 -304 -283 0.630885
w 306 305 284 0.13836
w 306 305 -284 0.685575
w 306 -305 284 0.864969
w 306 -305 -284 0.91937
w 307 306 285 1
w 307 306 -285 0
w 307 -306 285 0
w 307 -306 -285 0
w 308 307 286 0.389455
w 308 307 -286 0.556271
w 308 -307 286 0.721844
w 308 -307 -286 0.114062
w 309 287 1
w 309 -287 0
w 310 309 288 1
w 310 309 -288 1
w 310 -309 288 0
w 310 -309 -288 1
w 311 310 289 0
w 311 310 -289 1
w 311 -310 289 1
w 311 -310 -289 1
w 312 311 290 1
w 312 311 -290 0
w 312 -311 290 1
w 312 -311 -290 1
w 313 312 291 0
w 313 312 -291 0
w 313 -312 291 1
w 313 -312 -291 1
w 314 313 292 1
w 314 313 -292 1
w 314 -313 292 0
w 314 -313 -292 1
w 315 314 293 0.446983
w 315 314 -293 0.61007
w 315 -314 293 0.604754
w 315 -314 -293 0.385611
w 316 315 294 0
w 316 315 -294 1
w 316 -315 294 1
w 316 -315 -294 1
w 317 316 295 1
w 317 316 -295 0
w 317 -316 295 1
w 317 -316 -295 0
w 318 317 296 0.740455
w 318 317 -296 0.992564
w 318 -317 296 0.930457
w 318 -317 -296 0.433981
w 319 318 297 0
w 319 318 -297 0
w 319 -318 297 0
w 319 -318 -297 1
w 320 319 298 1
w 320 319 -298 0
w 320 -319 298 1
w 320 -319 -298 1
w 321 320 299 0.60515
w 321 320 -299 0.973931
w 321 -320 299 0.526699
w 321 -320 -299 0.209904
w 322 321 300 1
w 322 321 -300 1
w 322 -321 300 0
w 322 -321 -300 0
w 323 322 301 0.694899
w 323 322 -301 0.0306813
w 323 -322 301 0.357621
w 323 -322 -301 0.640706
w 324 323 302 1
w 324 323 -302 1
w 324 -323 302 0
w 324 -323 -302 1
w 325 324 303 0.146734
w 325 324 -303 0.834566
w 325 -324 303 0.807618
w 325 -324 -303 0.141101
w 326 325 304 1
w 326 325 -304 0
w 326 -325 304 0
w 326 -325 -304 1
w 327 326 305 0
w 327 326 -305 1
w 327 -326 305 0
w 327 -326 -305 1
w 328 327 306 1
w 328 327 -306 0
w 328 -327 306 1
w 328 -327 -306 1
w 329 328 307 1
w 329 328 -307 0
w 329 -328 307 0
w 329 -328 -307 1
w 330 329 308 0
w 330 329 -308 0
w 330 -329 308 1
w 330 -329 -308 0
w 331 309 0
w 331 -309 1
w 332 331 310 0
w 332 331 -310 1
w 332 -331 310 1
w 332 -331 -310 0
w 333 332 311 1
w 333 332 -311 0
w 333 -332 311 0
w 333 -332 -311 0
w 334 333 312 1
w 334 333 -312 0
w 334 -333 312 1
w 334 -333 -312 0
w 335 334 313 0
w 335 334 -313 1
w 335 -334 313 1
w 335 -334 -313 1
w 336 335 314 1
w 336 335 -314 1
w 336 -335 314 0
w 336 -335 -314 1
w 337 336 315 1
w 337 336 -315 0
w 337 -336 315 1
w 337 -336 -315 0
w 338 337 316 0.0215747
w 338 337 -316 0.117055
w 338 -337 316 0.402265
w 338 -337 -316 0.66347
w 339 338 317 1
w 339 338 -317 0
w 339 -338 317 0
w 339 -338 -317 1
w 340 339 318 0
w 340 339 -318 0
w 340 -339 318 1
w 340 -339 -318 0
w 341 340 319 0
w 341 340 -319 0
w 341 -340 319 0
w 341 -340 -319 1
w 342 341 320 1
w 342 341 -320 0
w 342 -341 320 1
w 342 -341 -320 1
w 343 342 321 0
w 343 342 -321 1
w 343 -342 321 1
w 343 -342 -321 1
w 344 343 322 1
w 344 343 -322 0
w 344 -343 322 0
w 344 -343 -322 0
w 345 344 323 0.852191
w 345 344 -323 0.0384534
w 345 -344 323 0.393591
w 345 -344 -323 0.922791
w 346 345 324 0
w 346 345 -324 0
w 346 -345 324 1
w 346 -345 -324 0
w 347 346 325 1
w 347 346 -325 0
w 347 -346 325 1
w 347 -346 -325 1
w 348 347 326 0
w 348 347 -326 1
w 348 -347 326 1
w 348 -347 -326 1
w 349 348 327 1
w 349 348 -327 0
w 349 -348 327 1
w 349 -348 -327 1
w 350 349 328 0.743811
w 350 349 -328 0.767615
w 350 -349 328 0.145501
w 350 -349 -328 0.71447
w 351 350 329 0
w 351 350 -329 0
w 351 -350 329 1
w 351 -350 -329 0
w 352 351 330 0
w 352 351 -330 0
w 352 -351 330 1
w 352 -351 -330 1
w 353 331 0
w 353 -331 1
w 354 353 332 0
w 354 353 -332 1
w 354 -353 332 0
w 354 -353 -332 1
w 355 354 333 0.431359
w 355 354 -333 0.678798
w 355 -354 333 0.0361601
w 355 -354 -333 0.0208251
w 356 355 334 0
w 356 355 -334 0
w 356 -355 334 1
w 356 -355 -334 1
w 357 356 335 0.623095
w 357 356 -335 0.561039
w 357 -356 335 0.654524
w 357 -356 -335 0.180888
w 358 357 336 0
w 358 357 -336 0
w 358 -357 336 1
w 358 -357 -336 0
w 359 358 337 1
w 359 358 -337 1
w 359 -358 337 1
w 359 -358 -337 0
w 360 359 338 1
w 360 359 -338 0
w 360 -359 338 1
w 360 -359 -338 0
w 361 360 339 0
w 361 360 -339 0
w 361 -360 339 0
w 361 -360 -339 1
w 362 361 340 0
w 362 361 -340 0
w 362 -361 340 1
w 362 -361 -340 0
w 363 362 341 0.739006
w 363 362 -341 0.839318
w 363 -362 341 0.42219
w 363 -362 -341 0.919894
w 364 363 342 1
w 364 363 -342 1
w 364 -363 342 0
w 364 -363 -342 0
w 365 364 343 1
w 365 364 -343 1
w 365 -364 343 0
w 365 -364 -343 0
w 366 365 344 0.32858
w 366 365 -344 0.298716
w 366 -365 344 0.215097
w 366 -365 -344 0.507766
w 367 366 345 1
w 367 366 -345 0
w 367 -366 345 0
w 367 -366 -345 1
w 368 367 346 0
w 368 367 -346 1
w 368 -367 346 1
w 368 -367 -346 0
w 369 368 347 0.344957
w 369 368 -347 0.826979
w 369 -368 347 0.658894
w 369 -368 -347 0.767147
w 370 369 348 1
w 370 369 -348 0
w 370 -369 348 0
w 370 -369 -348 0
w 371 370 349 0.855704
w 371 370 -349 0.712089
w 371 -370 349 0.816046
w 371 -370 -349 0.062703
w 372 371 350 1
w 372 371 -350 0
w 372 -371 350 1
w 372 -371 -350 0
w 373 372 351 0.335615
w 373 372 -351 0.296657
w 373 -372 351 0.0173591
w 373 -372 -351 0.0472476
w 374 373 352 0.767039
w 374 373 -352 0.0193102
w 374 -373 352 0.516512
w 374 -373 -352 0.34433
w 375 353 1
w 375 -353 0
w 376 375 354 0
w 376 375 -354 1
w 376 -375 354 1
w 376 -375 -354 1
w 377 376 355 1
w 377 376 -355 1
w 377 -376 355 1
w 377 -376 -355 0
w 378 377 356 0.286701
w 378 377 -356 0.447538
w 378 -377 356 0.0434442
w 378 -377 -356 0.657824
w 379 378 357 0
w 379 378 -357 0
w 379 -378 357 1
w 379 -378 -357 0
w 380 379 358 1
w 380 379 -358 1
w 380 -379 358 0
w 380 -379 -358 1
w 381 380 359 1
w 381 380 -359 0
w 381 -380 359 1
w 381 -380 -359 1
w 382 381 360 1
w 382 381 -360 0
w 382 -381 360 0
w 382 -381 -360 0
w 383 382 361 1
w 383 382 -361 1
w 383 -382 361 0
w 383 -382 -361 1
w 384 383 362 1
w 384 383 -362 1
w 384 -383 362 0
w 384 -383 -362 1
w 385 384 363 1
w 385 384 -363 1
w 385 -384 363 0
w 385 -384 -363 1
w 386 385 364 1
w 386 385 -364 0
w 386 -385 364 0
w 386 -385 -364 0
w 387 386 365 0.113618
w 387 386 -365 0.884518
w 387 -386 365 0.302057
w 387 -386 -365 0.950737
w 388 387 366 0.45385
w 388 387 -366 0.722119
w 388 -387 366 0.0649671
w 388 -387 -366 0.0620768
w 389 388 367 1
w 389 388 -367 0
w 389 -388 367 0
w 389 -388 -367 1
w 390 389 368 0
w 390 389 -368 0
w 390 -389 368 1
w 390 -389 -368 1
w 391 390 369 0
w 391 390 -369 0
w 391 -390 369 1
w 391 -390 -369 0
w 392 391 370 0
w 392 391 -370 1
w 392 -391 370 1
w 392 -391 -370 0
w 393 392 371 0
w 393 392 -371 0
w 393 -392 371 1
w 393 -392 -371 0
w 394 393 372 0.352925
w 394 393 -372 0.635771
w 394 -393 372 0.526226
w 394 -393 -372 0.417892
w 395 394 373 1
w 395 394 -373 1
w 395 -394 373 0
w 395 -394 -373 1
w 396 395 374 0.763535
w 396 395 -374 0.602396
w 396 -395 374 0.0771952
w 396 -395 -374 0.675758
w 397 375 0
w 397 -375 1
w 398 397 376 0
w 398 397 -376 1
w 398 -397 376 0
w 398 -397 -376 0
w 399 398 377 0.0535712
w 399 398 -377 0.259887
w 399 -398 377 0.863555
w 399 -398 -377 0.906941
w 400 399 378 0
w 400 399 -378 1
w 400 -399 378 1
w 400 -399 -378 0
w 401 400 379 1
w 401 400 -379 0
w 401 -400 379 0
w 401 -400 -379 0
w 402 401 380 1
w 402 401 -380 0
w 402 -401 380 0
w 402 -401 -380 1
w 403 402 381 1
w 403 402 -381 0
w 403 -402 381 0
w 403 -402 -381 1
w 404 403 382 1
w 404 403 -382 0
w 404 -403 382 1
w 404 -403 -382 1
w 405 404 383 1
w 405 404 -383 0
w 405 -404 383 0
w 405 -404 -383 1
w 406 405 384 0.56998
w 406 405 -384 0.29103
w 406 -405 384 0.485143
w 406 -405 -384 0.558465
w 407 406 385 0.722417
w 407 406 -385 0.964842
w 407 -406 385 0.351369
w 407 -406 -385 0.660554
w 408 407 386 1
w 408 407 -386 1
w 408 -407 386 1
w 408 -407 -386 0
w 409 408 387 0
w 409 408 -387 1
w 409 -408 387 1
w 409 -408 -387 1
w 410 409 388 0
w 410 409 -388 0
w 410 -409 388 1
w 410 -409 -388 0
w 411 410 389 0
w 411 410 -389 1
w 411 -410 389 0
w 411 -410 -389 0
w 412 411 390 0.930076
w 412 411 -390 0.172808
w 412 -411 390 0.781037
w 412 -411 -390 0.652493
w 413 412 391 1
w 413 412 -391 0
w 413 -412 391 1
w 413 -412 -391 1
w 414 413 392 0.556795
w 414 413 -392 0.571249
w 414 -413 392 0.784975
w 414 -413 -392 0.586053
w 415 414 393 1
w 415 414 -393 0
w 415 -414 393 0
w 415 -414 -393 0
w 416 415 394 1
w 416 415 -394 0
w 416 -415 394 1
w 416 -415 -394 0
w 417 416 395 1
w 417 416 -395 1
w 417 -416 395 1
w 417 -416 -395 0
w 418 417 396 0
w 418 417 -396 0
w 418 -417 396 0
w 418 -417 -396 1
w 419 397 1
w 419 -397 0
w 420 419 398 0.600328
w 420 419 -398 0.445276
w 420 -419 398 0.621643
w 420 -419 -398 0.157123
w 421 420 399 1
w 421 420 -399 0
w 421 -420 399 0
w 421 -420 -399 1
w 422 421 400 0.724778
w 422 421 -400 0.94735
w 422 -421 400 0.409916
w 422 -421 -400 0.715017
w 423 422 401 0
w 423 422 -401 0
w 423 -422 401 1
w 423 -422 -401 0
w 424 423 402 0.941265
w 424 423 -402 0.0960457
w 424 -423 402 0.346488
w 424 -423 -402 0.056214
w 425 424 403 0
w 425 424 -403 1
w 425 -424 403 0
w 425 -424 -403 0
w 426 425 404 0.00385866
w 426 425 -404 0.819111
w 426 -425 404 0.349422
w 426 -425 -404 0.625502
w 427 426 405 0.365947
w 427 426 -405 0.0321203
w 427 -426 405 0.71941
w 427 -426 -405 0.990664
w 428 427 406 0
w 428 427 -406 0
w 428 -427 406 0
w 428 -427 -406 1
w 429 428 407 1
w 429 428 -407 0
w 429 -428 407 1
w 429 -428 -407 0
w 430 429 408 0.165472
w 430 429 -408 0.375512
w 430 -429 408 0.931465
w 430 -429 -408 0.511959
w 431 430 409 0
w 431 430 -409 1
w 431 -430 409 1
w 431 -430 -409 1
w 432 431 410 1
w 432 431 -410 0
w 432 -431 410 1
w 432 -431 -410 0
w 433 432 411 0
w 433 432 -411 1
w 433 -432 411 0
w 433 -432 -411 0
w 434 433 412 0
w 434 433 -412 1
w 434 -433 412 1
w 434 -433 -412 1
w 435 434 413 0
w 435 434 -413 1
w 435 -434 413 0
w 435 -434 -413 1
w 436 435 414 1
w 436 435 -414 0
w 436 -435 414 0
w 436 -435 -414 1
w 437 436 415 1
w 437 436 -415 0
w 437 -436 415 1
w 437 -436 -415 0
w 438 437 416 0.110001
w 438 437 -416 0.355857
w 438 -437 416 0.0386362
w 438 -437 -416 0.61895
w 439 438 417 1
w 439 438 -417 1
w 439 -438 417 0
w 439 -438 -417 1
w 440 439 418 1
w 440 439 -418 0
w 440 -439 418 0
w 440 -439 -418 1
w 441 419 0.46802
w 441 -419 0.899047
w 442 441 420 1
w 442 441 -420 0
w 442 -441 420 0
w 442 -441 -420 1
w 443 442 421 0
w 443 442 -421 1
w 443 -442 421 1
w 443 -442 -421 0
w 444 443 422 1
w 444 443 -422 0
w 444 -443 422 1
w 444 -443 -422 1
w 445 444 423 0
w 445 444 -423 0
w 445 -444 423 1
w 445 -444 -423 1
w 446 445 424 0
w 446 445 -424 1
w 446 -445 424 1
w 446 -445 -424 0
w 447 446 425 0.62109
w 447 446 -425 0.808103
w 447 -446 425 0.739285
w 447 -446 -425 0.0891101
w 448 447 426 0
w 448 447 -426 1
w 448 -447 426 1
w 448 -447 -426 0
w 449 448 427 0
w 449 448 -427 0
w 449 -448 427 0
w 449 -448 -427 1
w 450 449 428 1
w 450 449 -428 1
w 450 -449 428 1
w 450 -449 -428 0
w 451 450 429 0.836778
w 451 450 -429 0.0118898
w 451 -450 429 0.18305
w 451 -450 -429 0.306934
w 452 451 430 1
w 452 451 -430 0
w 452 -451 430 0
w 452 -451 -430 1
w 453 452 431 0
w 453 452 -431 0
w 453 -452 431 1
w 453 -452 -431 0
w 454 453 432 0.0319241
w 454 453 -432 0.983699
w 454 -453 432 0.312911
w 454 -453 -432 0.060984
w 455 454 433 1
w 455 454 -433 0
w 455 -454 433 1
w 455 -454 -433 1
w 456 455 434 0
w 456 455 -434 0
w 456 -455 434 1
w 456 -455 -434 0
w 457 456 435 1
w 457 456 -435 1
w 457 -456 435 0
w 457 -456 -435 0
w 458 457 436 1
w 458 457 -436 1
w 458 -457 436 1
w 458 -457 -436 0
w 459 458 437 0
w 459 458 -437 0
w 459 -458 437 1
w 459 -458 -437 1
w 460 459 438 1
w 460 459 -438 0
w 460 -459 438 1
w 460 -459 -438 1
w 461 460 439 0
w 461 460 -439 0
w 461 -460 439 1
w 461 -460 -439 1
w 462 461 440 1
w 462 461 -440 0
w 462 -461 440 0
w 462 -461 -440 0
w 463 441 1
w 463 -441 0
w 464 463 442 1
w 464 463 -442 1
w 464 -463 442 0
w 464 -463 -442 0
w 465 464 443 1
w 465 464 -443 1
w 465 -464 443 1
w 465 -464 -443 0
w 466 465 444 0
w 466 465 -444 1
w 466 -465 444 1
w 466 -465 -444 1
w 467 466 445 1
w 467 466 -445 0
w 467 -466 445 0
w 467 -466 -445 0
w 468 467 446 0.572965
w 468 467 -446 0.157549
w 468 -467 446 0.0183144
w 468 -467 -446 0.725772
w 469 468 447 0.661785
w 469 468 -447 0.193431
w 469 -468 447 0.103861
w 469 -468 -447 0.686525
w 470 469 448 0.714637
w 470 469 -448 0.275586
w 470 -469 448 0.890573
w 470 -469 -448 0.253941
w 471 470 449 0.447162
w 471 470 -449 0.0682648
w 471 -470 449 0.957566
w 471 -470 -449 0.99916
w 472 471 450 0
w 472 471 -450 1
w 472 -471 450 0
w 472 -471 -450 1
w 473 472 451 0
w 473 472 -451 1
w 473 -472 451 1
w 473 -472 -451 1
w 474 473 452 0.549748
w 474 473 -452 0.228222
w 474 -473 452 0.0679783
w 474 -473 -452 0.568062
w 475 474 453 0.990107
w 475 474 -453 0.229847
w 475 -474 453 0.147425
w 475 -474 -453 0.0939674
w 476 475 454 0.960144
w 476 475 -454 0.808604
w 476 -475 454 0.191958
w 476 -475 -454 0.850718
w 477 476 455 0
w 477 476 -455 1
w 477 -476 455 0
w 477 -476 -455 1
w 478 477 456 1
w 478 477 -456 0
w 478 -477 456 0
w 478 -477 -456 1
w 479 478 457 1
w 479 478 -457 1
w 479 -478 457 0
w 479 -478 -457 0
w 480 479 458 1
w 480 479 -458 1
w 480 -479 458 1
w 480 -479 -458 0
w 481 480 459 0
w 481 480 -459 0
w 481 -480 459 1
w 481 -480 -459 1
w 482 481 460 1
w 482 481 -460 0
w 482 -481 460 1
w 482 -481 -460 0
w 483 482 461 1
w 483 482 -461 0
w 483 -482 461 1
w 483 -482 -461 0
w 484 483 462 0
w 484 483 -462 0
w 484 -483 462 0
w 484 -483 -462 1